# Objective value = 3.6959399999999991e+03
I_0_0 4027
I_0_1 4.9980000000000009e+03
I_0_2 4.6220000000000009e+03
I_0_3 6.1880000000000009e+03
I_1_0 150
I_1_1 1.4999999999999983e+02
I_1_2 75.0000000000002
I_1_3 1.9895196601282805e-13
I_2_0 67
I_2_1 1.1529666110732251e-13
I_2_2 67
I_2_3 0
I_3_0 128
I_3_1 64
I_3_2 128
I_3_3 64
I_4_0 80
I_4_1 4.0000000000000014e+01
I_4_2 7.9999999999999972e+01
I_4_3 3.9999999999999979e+01
I_5_0 93
I_5_1 0
I_5_2 93
I_5_3 0
I_6_0 38
I_6_1 3.7999999999999929e+01
I_6_2 1.9000000000000064e+01
I_6_3 6.3948846218409017e-14
I_7_0 88
I_7_1 8.7999999999999844e+01
I_7_2 4.4000000000000178e+01
I_7_3 1.7763568394002505e-13
I_8_0 54
I_8_1 1.1915468611789493e-13
I_8_2 54
I_8_3 0
I_9_0 56
I_9_1 0
I_9_2 56
I_9_3 0
I_10_0 59
I_10_1 6.5503158452884236e-14
I_10_2 59
I_10_3 0
I_11_0 76
I_11_1 1.1865508575681361e-13
I_11_2 76
I_11_3 0
I_12_0 196
I_12_1 196
I_12_2 98
I_12_3 0
I_13_0 150
I_13_1 1.4999999999999994e+02
I_13_2 7.4999999999999986e+01
I_13_3 -1.5543122344752192e-14
I_14_0 150
I_14_1 150
I_14_2 75
I_14_3 0
I_15_0 180
I_15_1 180
I_15_2 8.9999999999999986e+01
I_15_3 -2.0872192862952943e-14
I_16_0 176
I_16_1 176
I_16_2 88
I_16_3 0
I_17_0 62
I_17_1 62
I_17_2 31
I_17_3 0
I_18_0 79
I_18_1 0
I_18_2 79
I_18_3 0
I_19_0 68
I_19_1 -5.6621374255882984e-14
I_19_2 68
I_19_3 0
I_20_0 58
I_20_1 3.7025937871248971e-14
I_20_2 58
I_20_3 0
I_21_0 198
I_21_1 99.0000000000001
I_21_2 198
I_21_3 9.9000000000000014e+01
I_22_0 14
I_22_1 -6.2172489379008766e-15
I_22_2 14
I_22_3 0
I_23_0 47
I_23_1 -2.4785729024756620e-14
I_23_2 47
I_23_3 0
I_24_0 46
I_24_1 23
I_24_2 46
I_24_3 23
I_25_0 148
I_25_1 74
I_25_2 148
I_25_3 74
q_1_0 7.4999999999999815e+01
q_1_1 3.4106051316484809e-13
q_1_2 0
q_2_0 1.1529666110732251e-13
q_2_1 1.3399999999999989e+02
q_2_2 0
q_3_0 0
q_3_1 128
q_3_2 0
q_4_0 1.5543122344752192e-14
q_4_1 7.9999999999999972e+01
q_4_2 0
q_5_0 0
q_5_1 186
q_5_2 0
q_6_0 1.8999999999999932e+01
q_6_1 1.2789769243681803e-13
q_6_2 0
q_7_0 4.3999999999999844e+01
q_7_1 3.2684965844964609e-13
q_7_2 0
q_8_0 1.1915468611789493e-13
q_8_1 1.0799999999999989e+02
q_8_2 0
q_9_0 0
q_9_1 112
q_9_2 0
q_10_0 6.5503158452884236e-14
q_10_1 1.1799999999999994e+02
q_10_2 0
q_11_0 1.1865508575681361e-13
q_11_1 1.5199999999999989e+02
q_11_2 0
q_12_0 98
q_12_1 0
q_12_2 0
q_13_0 7.4999999999999943e+01
q_13_1 -2.9309887850104133e-14
q_13_2 0
q_14_0 75
q_14_1 0
q_14_2 0
q_15_0 8.9999999999999986e+01
q_15_1 -4.2632564145606011e-14
q_15_2 0
q_16_0 88
q_16_1 0
q_16_2 0
q_17_0 31
q_17_1 0
q_17_2 0
q_18_0 0
q_18_1 158
q_18_2 0
q_19_0 -5.6621374255882984e-14
q_19_1 1.3600000000000006e+02
q_19_2 0
q_20_0 3.7025937871248971e-14
q_20_1 1.1599999999999997e+02
q_20_2 0
q_21_0 1.0441647546599597e-13
q_21_1 1.9799999999999991e+02
q_21_2 0
q_22_0 -6.2172489379008766e-15
q_22_1 2.8000000000000007e+01
q_22_2 0
q_23_0 -2.4785729024756620e-14
q_23_1 9.4000000000000028e+01
q_23_2 0
q_24_0 0
q_24_1 46
q_24_2 0
q_25_0 0
q_25_1 148
q_25_2 0
y_0_0 1
y_0_1 1
y_0_2 0
y_1_0 9.9999999999999756e-01
y_1_1 2.6645352591003757e-15
y_1_2 0
y_2_0 1.7208456881689926e-15
y_2_1 1
y_2_2 0
y_3_0 0
y_3_1 1
y_3_2 0
y_4_0 3.8857805861880479e-16
y_4_1 9.9999999999999978e-01
y_4_2 0
y_5_0 0
y_5_1 1
y_5_2 0
y_6_0 9.9999999999999645e-01
y_6_1 3.3306690738754696e-15
y_6_2 0
y_7_0 9.9999999999999645e-01
y_7_1 3.3306690738754696e-15
y_7_2 0
y_8_0 2.2065682614424986e-15
y_8_1 1
y_8_2 0
y_9_0 0
y_9_1 1
y_9_2 0
y_10_0 1.1102230246251565e-15
y_10_1 1
y_10_2 0
y_11_0 1.5612511283791264e-15
y_11_1 1
y_11_2 0
y_12_0 1
y_12_1 0
y_12_2 0
y_13_0 9.9999999999999933e-01
y_13_1 -2.0122792321330962e-16
y_13_2 0
y_14_0 1
y_14_1 0
y_14_2 0
y_15_0 9.9999999999999978e-01
y_15_1 -1.9428902930940239e-16
y_15_2 0
y_16_0 1
y_16_1 0
y_16_2 0
y_17_0 1
y_17_1 0
y_17_2 0
y_18_0 0
y_18_1 1
y_18_2 0
y_19_0 -8.3266726846886741e-16
y_19_1 1
y_19_2 0
y_20_0 6.38378239159465e-16
y_20_1 1
y_20_2 0
y_21_0 1.0547118733938987e-15
y_21_1 1
y_21_2 0
y_22_0 -4.4408920985006262e-16
y_22_1 1
y_22_2 0
y_23_0 -5.2735593669694936e-16
y_23_1 1
y_23_2 0
y_24_0 0
y_24_1 1
y_24_2 0
y_25_0 0
y_25_1 1
y_25_2 0
x_0_1_0 1.0000000000000007e+00
x_0_1_1 2.4424906541753444e-15
x_0_1_2 0
x_0_2_0 3.4416913763379853e-15
x_0_2_1 9.9999999999999889e-01
x_0_2_2 0
x_0_3_0 0
x_0_3_1 0
x_0_3_2 0
x_0_4_0 0
x_0_4_1 0
x_0_4_2 0
x_0_5_0 0
x_0_5_1 9.9999999999999545e-01
x_0_5_2 0
x_0_6_0 0
x_0_6_1 0
x_0_6_2 0
x_0_7_0 9.9999999999999645e-01
x_0_7_1 3.3306690738754696e-15
x_0_7_2 0
x_0_8_0 0
x_0_8_1 0
x_0_8_2 0
x_0_9_0 0
x_0_9_1 0
x_0_9_2 0
x_0_10_0 0
x_0_10_1 0
x_0_10_2 0
x_0_11_0 0
x_0_11_1 0
x_0_11_2 0
x_0_12_0 0
x_0_12_1 0
x_0_12_2 0
x_0_13_0 0
x_0_13_1 0
x_0_13_2 0
x_0_14_0 0
x_0_14_1 0
x_0_14_2 0
x_0_15_0 0
x_0_15_1 0
x_0_15_2 0
x_0_16_0 0
x_0_16_1 0
x_0_16_2 0
x_0_17_0 0
x_0_17_1 0
x_0_17_2 0
x_0_18_0 0
x_0_18_1 0
x_0_18_2 0
x_0_19_0 0
x_0_19_1 0
x_0_19_2 0
x_0_20_0 0
x_0_20_1 0
x_0_20_2 0
x_0_21_0 0
x_0_21_1 0
x_0_21_2 0
x_0_22_0 0
x_0_22_1 0
x_0_22_2 0
x_0_23_0 0
x_0_23_1 0
x_0_23_2 0
x_0_24_0 0
x_0_24_1 0
x_0_24_2 0
x_0_25_0 0
x_0_25_1 0
x_0_25_2 0
x_1_2_0 0
x_1_2_1 2.4424906541753444e-15
x_1_2_2 0
x_1_3_0 0
x_1_3_1 0
x_1_3_2 0
x_1_4_0 0
x_1_4_1 0
x_1_4_2 0
x_1_5_0 0
x_1_5_1 0
x_1_5_2 0
x_1_6_0 0
x_1_6_1 0
x_1_6_2 0
x_1_7_0 0
x_1_7_1 0
x_1_7_2 0
x_1_8_0 0
x_1_8_1 0
x_1_8_2 0
x_1_9_0 0
x_1_9_1 0
x_1_9_2 0
x_1_10_0 0
x_1_10_1 0
x_1_10_2 0
x_1_11_0 0
x_1_11_1 0
x_1_11_2 0
x_1_12_0 9.9999999999999456e-01
x_1_12_1 0
x_1_12_2 0
x_1_13_0 0
x_1_13_1 0
x_1_13_2 0
x_1_14_0 0
x_1_14_1 0
x_1_14_2 0
x_1_15_0 0
x_1_15_1 0
x_1_15_2 0
x_1_16_0 0
x_1_16_1 0
x_1_16_2 0
x_1_17_0 0
x_1_17_1 0
x_1_17_2 0
x_1_18_0 0
x_1_18_1 0
x_1_18_2 0
x_1_19_0 0
x_1_19_1 0
x_1_19_2 0
x_1_20_0 0
x_1_20_1 0
x_1_20_2 0
x_1_21_0 0
x_1_21_1 0
x_1_21_2 0
x_1_22_0 0
x_1_22_1 0
x_1_22_2 0
x_1_23_0 0
x_1_23_1 0
x_1_23_2 0
x_1_24_0 0
x_1_24_1 0
x_1_24_2 0
x_1_25_0 0
x_1_25_1 0
x_1_25_2 0
x_2_3_0 0
x_2_3_1 0
x_2_3_2 0
x_2_4_0 0
x_2_4_1 0
x_2_4_2 0
x_2_5_0 0
x_2_5_1 -1.4571677198205180e-15
x_2_5_2 0
x_2_6_0 0
x_2_6_1 0
x_2_6_2 0
x_2_7_0 0
x_2_7_1 0
x_2_7_2 0
x_2_8_0 0
x_2_8_1 0
x_2_8_2 0
x_2_9_0 0
x_2_9_1 0
x_2_9_2 0
x_2_10_0 0
x_2_10_1 0
x_2_10_2 0
x_2_11_0 0
x_2_11_1 0
x_2_11_2 0
x_2_12_0 0
x_2_12_1 0
x_2_12_2 0
x_2_13_0 0
x_2_13_1 0
x_2_13_2 0
x_2_14_0 0
x_2_14_1 0
x_2_14_2 0
x_2_15_0 0
x_2_15_1 0
x_2_15_2 0
x_2_16_0 0
x_2_16_1 0
x_2_16_2 0
x_2_17_0 0
x_2_17_1 0
x_2_17_2 0
x_2_18_0 0
x_2_18_1 1
x_2_18_2 0
x_2_19_0 0
x_2_19_1 0
x_2_19_2 0
x_2_20_0 0
x_2_20_1 0
x_2_20_2 0
x_2_21_0 0
x_2_21_1 0
x_2_21_2 0
x_2_22_0 0
x_2_22_1 0
x_2_22_2 0
x_2_23_0 0
x_2_23_1 0
x_2_23_2 0
x_2_24_0 0
x_2_24_1 0
x_2_24_2 0
x_2_25_0 0
x_2_25_1 0
x_2_25_2 0
x_3_4_0 -1.2212453270876722e-15
x_3_4_1 9.9999999999999889e-01
x_3_4_2 0
x_3_5_0 0
x_3_5_1 3.5527136788005009e-15
x_3_5_2 0
x_3_6_0 0
x_3_6_1 0
x_3_6_2 0
x_3_7_0 0
x_3_7_1 0
x_3_7_2 0
x_3_8_0 6.8001160258290838e-16
x_3_8_1 9.9999999999999778e-01
x_3_8_2 0
x_3_9_0 0
x_3_9_1 0
x_3_9_2 0
x_3_10_0 0
x_3_10_1 0
x_3_10_2 0
x_3_11_0 0
x_3_11_1 0
x_3_11_2 0
x_3_12_0 1.2420620087993939e-15
x_3_12_1 0
x_3_12_2 0
x_3_13_0 0
x_3_13_1 0
x_3_13_2 0
x_3_14_0 0
x_3_14_1 0
x_3_14_2 0
x_3_15_0 0
x_3_15_1 0
x_3_15_2 0
x_3_16_0 0
x_3_16_1 0
x_3_16_2 0
x_3_17_0 0
x_3_17_1 0
x_3_17_2 0
x_3_18_0 0
x_3_18_1 0
x_3_18_2 0
x_3_19_0 0
x_3_19_1 0
x_3_19_2 0
x_3_20_0 0
x_3_20_1 0
x_3_20_2 0
x_3_21_0 0
x_3_21_1 0
x_3_21_2 0
x_3_22_0 0
x_3_22_1 0
x_3_22_2 0
x_3_23_0 0
x_3_23_1 0
x_3_23_2 0
x_3_24_0 0
x_3_24_1 0
x_3_24_2 0
x_3_25_0 0
x_3_25_1 0
x_3_25_2 0
x_4_5_0 -3.6082248300317588e-16
x_4_5_1 9.9999999999999978e-01
x_4_5_2 0
x_4_6_0 0
x_4_6_1 0
x_4_6_2 0
x_4_7_0 0
x_4_7_1 0
x_4_7_2 0
x_4_8_0 0
x_4_8_1 4.4408920985006262e-16
x_4_8_2 0
x_4_9_0 0
x_4_9_1 0
x_4_9_2 0
x_4_10_0 0
x_4_10_1 0
x_4_10_2 0
x_4_11_0 0
x_4_11_1 0
x_4_11_2 0
x_4_12_0 0
x_4_12_1 0
x_4_12_2 0
x_4_13_0 0
x_4_13_1 0
x_4_13_2 0
x_4_14_0 0
x_4_14_1 0
x_4_14_2 0
x_4_15_0 0
x_4_15_1 0
x_4_15_2 0
x_4_16_0 0
x_4_16_1 0
x_4_16_2 0
x_4_17_0 5.5511151231257827e-16
x_4_17_1 0
x_4_17_2 0
x_4_18_0 0
x_4_18_1 0
x_4_18_2 0
x_4_19_0 0
x_4_19_1 0
x_4_19_2 0
x_4_20_0 0
x_4_20_1 0
x_4_20_2 0
x_4_21_0 0
x_4_21_1 0
x_4_21_2 0
x_4_22_0 0
x_4_22_1 0
x_4_22_2 0
x_4_23_0 0
x_4_23_1 0
x_4_23_2 0
x_4_24_0 0
x_4_24_1 0
x_4_24_2 0
x_4_25_0 0
x_4_25_1 0
x_4_25_2 0
x_5_6_0 0
x_5_6_1 3.3306690738754696e-15
x_5_6_2 0
x_5_7_0 0
x_5_7_1 0
x_5_7_2 0
x_5_8_0 0
x_5_8_1 0
x_5_8_2 0
x_5_9_0 0
x_5_9_1 0
x_5_9_2 0
x_5_10_0 0
x_5_10_1 0
x_5_10_2 0
x_5_11_0 0
x_5_11_1 0
x_5_11_2 0
x_5_12_0 0
x_5_12_1 0
x_5_12_2 0
x_5_13_0 0
x_5_13_1 0
x_5_13_2 0
x_5_14_0 0
x_5_14_1 0
x_5_14_2 0
x_5_15_0 0
x_5_15_1 0
x_5_15_2 0
x_5_16_0 0
x_5_16_1 0
x_5_16_2 0
x_5_17_0 0
x_5_17_1 0
x_5_17_2 0
x_5_18_0 0
x_5_18_1 0
x_5_18_2 0
x_5_19_0 0
x_5_19_1 0
x_5_19_2 0
x_5_20_0 0
x_5_20_1 0
x_5_20_2 0
x_5_21_0 0
x_5_21_1 0
x_5_21_2 0
x_5_22_0 0
x_5_22_1 0
x_5_22_2 0
x_5_23_0 0
x_5_23_1 0
x_5_23_2 0
x_5_24_0 0
x_5_24_1 0
x_5_24_2 0
x_5_25_0 0
x_5_25_1 0
x_5_25_2 0
x_6_7_0 9.9999999999999734e-01
x_6_7_1 3.3306690738754696e-15
x_6_7_2 0
x_6_8_0 0
x_6_8_1 0
x_6_8_2 0
x_6_9_0 0
x_6_9_1 0
x_6_9_2 0
x_6_10_0 0
x_6_10_1 0
x_6_10_2 0
x_6_11_0 0
x_6_11_1 0
x_6_11_2 0
x_6_12_0 0
x_6_12_1 0
x_6_12_2 0
x_6_13_0 0
x_6_13_1 0
x_6_13_2 0
x_6_14_0 0
x_6_14_1 0
x_6_14_2 0
x_6_15_0 0
x_6_15_1 0
x_6_15_2 0
x_6_16_0 0
x_6_16_1 0
x_6_16_2 0
x_6_17_0 9.9999999999999667e-01
x_6_17_1 0
x_6_17_2 0
x_6_18_0 0
x_6_18_1 0
x_6_18_2 0
x_6_19_0 0
x_6_19_1 0
x_6_19_2 0
x_6_20_0 0
x_6_20_1 0
x_6_20_2 0
x_6_21_0 0
x_6_21_1 0
x_6_21_2 0
x_6_22_0 0
x_6_22_1 0
x_6_22_2 0
x_6_23_0 0
x_6_23_1 0
x_6_23_2 0
x_6_24_0 0
x_6_24_1 0
x_6_24_2 0
x_6_25_0 0
x_6_25_1 0
x_6_25_2 0
x_7_8_0 0
x_7_8_1 0
x_7_8_2 0
x_7_9_0 0
x_7_9_1 0
x_7_9_2 0
x_7_10_0 0
x_7_10_1 0
x_7_10_2 0
x_7_11_0 0
x_7_11_1 0
x_7_11_2 0
x_7_12_0 0
x_7_12_1 0
x_7_12_2 0
x_7_13_0 0
x_7_13_1 0
x_7_13_2 0
x_7_14_0 0
x_7_14_1 0
x_7_14_2 0
x_7_15_0 0
x_7_15_1 0
x_7_15_2 0
x_7_16_0 0
x_7_16_1 0
x_7_16_2 0
x_7_17_0 0
x_7_17_1 0
x_7_17_2 0
x_7_18_0 0
x_7_18_1 0
x_7_18_2 0
x_7_19_0 0
x_7_19_1 0
x_7_19_2 0
x_7_20_0 0
x_7_20_1 0
x_7_20_2 0
x_7_21_0 0
x_7_21_1 0
x_7_21_2 0
x_7_22_0 0
x_7_22_1 0
x_7_22_2 0
x_7_23_0 0
x_7_23_1 0
x_7_23_2 0
x_7_24_0 0
x_7_24_1 0
x_7_24_2 0
x_7_25_0 0
x_7_25_1 0
x_7_25_2 0
x_8_9_0 0
x_8_9_1 1
x_8_9_2 0
x_8_10_0 0
x_8_10_1 0
x_8_10_2 0
x_8_11_0 0
x_8_11_1 0
x_8_11_2 0
x_8_12_0 1.2628786905111156e-15
x_8_12_1 0
x_8_12_2 0
x_8_13_0 0
x_8_13_1 0
x_8_13_2 0
x_8_14_0 0
x_8_14_1 0
x_8_14_2 0
x_8_15_0 0
x_8_15_1 -1.9428902930940239e-16
x_8_15_2 0
x_8_16_0 0
x_8_16_1 0
x_8_16_2 0
x_8_17_0 2.2065682614424986e-15
x_8_17_1 0
x_8_17_2 0
x_8_18_0 0
x_8_18_1 0
x_8_18_2 0
x_8_19_0 0
x_8_19_1 0
x_8_19_2 0
x_8_20_0 0
x_8_20_1 0
x_8_20_2 0
x_8_21_0 0
x_8_21_1 0
x_8_21_2 0
x_8_22_0 0
x_8_22_1 0
x_8_22_2 0
x_8_23_0 0
x_8_23_1 0
x_8_23_2 0
x_8_24_0 0
x_8_24_1 0
x_8_24_2 0
x_8_25_0 0
x_8_25_1 0
x_8_25_2 0
x_9_10_0 0
x_9_10_1 9.9999999999999978e-01
x_9_10_2 0
x_9_11_0 0
x_9_11_1 0
x_9_11_2 0
x_9_12_0 0
x_9_12_1 1.5265566588595902e-16
x_9_12_2 0
x_9_13_0 0
x_9_13_1 0
x_9_13_2 0
x_9_14_0 0
x_9_14_1 0
x_9_14_2 0
x_9_15_0 0
x_9_15_1 0
x_9_15_2 0
x_9_16_0 0
x_9_16_1 0
x_9_16_2 0
x_9_17_0 0
x_9_17_1 0
x_9_17_2 0
x_9_18_0 0
x_9_18_1 0
x_9_18_2 0
x_9_19_0 0
x_9_19_1 0
x_9_19_2 0
x_9_20_0 0
x_9_20_1 0
x_9_20_2 0
x_9_21_0 0
x_9_21_1 0
x_9_21_2 0
x_9_22_0 0
x_9_22_1 0
x_9_22_2 0
x_9_23_0 0
x_9_23_1 0
x_9_23_2 0
x_9_24_0 0
x_9_24_1 0
x_9_24_2 0
x_9_25_0 0
x_9_25_1 0
x_9_25_2 0
x_10_11_0 2.4494295480792516e-15
x_10_11_1 1
x_10_11_2 0
x_10_12_0 -3.6082248300317588e-16
x_10_12_1 0
x_10_12_2 0
x_10_13_0 0
x_10_13_1 0
x_10_13_2 0
x_10_14_0 0
x_10_14_1 0
x_10_14_2 0
x_10_15_0 -2.2204460492503131e-16
x_10_15_1 0
x_10_15_2 0
x_10_16_0 0
x_10_16_1 0
x_10_16_2 0
x_10_17_0 0
x_10_17_1 0
x_10_17_2 0
x_10_18_0 0
x_10_18_1 1.5265566588595902e-16
x_10_18_2 0
x_10_19_0 -2.2204460492503131e-16
x_10_19_1 0
x_10_19_2 0
x_10_20_0 0
x_10_20_1 0
x_10_20_2 0
x_10_21_0 -8.3266726846886741e-17
x_10_21_1 0
x_10_21_2 0
x_10_22_0 0
x_10_22_1 0
x_10_22_2 0
x_10_23_0 0
x_10_23_1 0
x_10_23_2 0
x_10_24_0 0
x_10_24_1 0
x_10_24_2 0
x_10_25_0 0
x_10_25_1 0
x_10_25_2 0
x_11_12_0 1.2212453270876722e-15
x_11_12_1 -2.6367796834847468e-16
x_11_12_2 0
x_11_13_0 0
x_11_13_1 0
x_11_13_2 0
x_11_14_0 3.3306690738754696e-16
x_11_14_1 0
x_11_14_2 0
x_11_15_0 0
x_11_15_1 0
x_11_15_2 0
x_11_16_0 0
x_11_16_1 0
x_11_16_2 0
x_11_17_0 0
x_11_17_1 0
x_11_17_2 0
x_11_18_0 0
x_11_18_1 0
x_11_18_2 0
x_11_19_0 0
x_11_19_1 0
x_11_19_2 0
x_11_20_0 0
x_11_20_1 0
x_11_20_2 0
x_11_21_0 0
x_11_21_1 0
x_11_21_2 0
x_11_22_0 0
x_11_22_1 0
x_11_22_2 0
x_11_23_0 2.2204460492503131e-16
x_11_23_1 0
x_11_23_2 0
x_11_24_0 0
x_11_24_1 1.0000000000000002e+00
x_11_24_2 0
x_11_25_0 0
x_11_25_1 0
x_11_25_2 0
x_12_13_0 0
x_12_13_1 0
x_12_13_2 0
x_12_14_0 1
x_12_14_1 0
x_12_14_2 0
x_12_15_0 -2.7755575615628914e-16
x_12_15_1 0
x_12_15_2 0
x_12_16_0 0
x_12_16_1 0
x_12_16_2 0
x_12_17_0 0
x_12_17_1 0
x_12_17_2 0
x_12_18_0 0
x_12_18_1 0
x_12_18_2 0
x_12_19_0 -1.6098233857064770e-15
x_12_19_1 0
x_12_19_2 0
x_12_20_0 1.8318679906315083e-15
x_12_20_1 0
x_12_20_2 0
x_12_21_0 0
x_12_21_1 0
x_12_21_2 0
x_12_22_0 -1.2212453270876722e-15
x_12_22_1 0
x_12_22_2 0
x_12_23_0 -1.0547118733938987e-15
x_12_23_1 0
x_12_23_2 0
x_12_24_0 0
x_12_24_1 6.9388939039072284e-17
x_12_24_2 0
x_12_25_0 -2.2204460492503131e-16
x_12_25_1 0
x_12_25_2 0
x_13_14_0 9.9999999999999889e-01
x_13_14_1 0
x_13_14_2 0
x_13_15_0 9.9999999999999956e-01
x_13_15_1 -1.8041124150158794e-16
x_13_15_2 0
x_13_16_0 -2.7755575615628914e-16
x_13_16_1 0
x_13_16_2 0
x_13_17_0 0
x_13_17_1 0
x_13_17_2 0
x_13_18_0 0
x_13_18_1 0
x_13_18_2 0
x_13_19_0 0
x_13_19_1 0
x_13_19_2 0
x_13_20_0 0
x_13_20_1 0
x_13_20_2 0
x_13_21_0 0
x_13_21_1 0
x_13_21_2 0
x_13_22_0 0
x_13_22_1 0
x_13_22_2 0
x_13_23_0 0
x_13_23_1 0
x_13_23_2 0
x_13_24_0 0
x_13_24_1 -1.8041124150158794e-16
x_13_24_2 0
x_13_25_0 0
x_13_25_1 0
x_13_25_2 0
x_14_15_0 0
x_14_15_1 0
x_14_15_2 0
x_14_16_0 -2.2204460492503131e-16
x_14_16_1 0
x_14_16_2 0
x_14_17_0 0
x_14_17_1 0
x_14_17_2 0
x_14_18_0 0
x_14_18_1 0
x_14_18_2 0
x_14_19_0 0
x_14_19_1 0
x_14_19_2 0
x_14_20_0 0
x_14_20_1 0
x_14_20_2 0
x_14_21_0 2.3314683517128287e-15
x_14_21_1 0
x_14_21_2 0
x_14_22_0 0
x_14_22_1 0
x_14_22_2 0
x_14_23_0 0
x_14_23_1 0
x_14_23_2 0
x_14_24_0 0
x_14_24_1 0
x_14_24_2 0
x_14_25_0 0
x_14_25_1 0
x_14_25_2 0
x_15_16_0 1.0000000000000009e+00
x_15_16_1 0
x_15_16_2 0
x_15_17_0 0
x_15_17_1 0
x_15_17_2 0
x_15_18_0 0
x_15_18_1 0
x_15_18_2 0
x_15_19_0 0
x_15_19_1 0
x_15_19_2 0
x_15_20_0 0
x_15_20_1 0
x_15_20_2 0
x_15_21_0 0
x_15_21_1 0
x_15_21_2 0
x_15_22_0 0
x_15_22_1 0
x_15_22_2 0
x_15_23_0 0
x_15_23_1 0
x_15_23_2 0
x_15_24_0 0
x_15_24_1 0
x_15_24_2 0
x_15_25_0 0
x_15_25_1 0
x_15_25_2 0
x_16_17_0 1
x_16_17_1 0
x_16_17_2 0
x_16_18_0 0
x_16_18_1 0
x_16_18_2 0
x_16_19_0 0
x_16_19_1 0
x_16_19_2 0
x_16_20_0 0
x_16_20_1 0
x_16_20_2 0
x_16_21_0 0
x_16_21_1 0
x_16_21_2 0
x_16_22_0 0
x_16_22_1 0
x_16_22_2 0
x_16_23_0 0
x_16_23_1 0
x_16_23_2 0
x_16_24_0 0
x_16_24_1 0
x_16_24_2 0
x_16_25_0 0
x_16_25_1 0
x_16_25_2 0
x_17_18_0 0
x_17_18_1 0
x_17_18_2 0
x_17_19_0 0
x_17_19_1 0
x_17_19_2 0
x_17_20_0 0
x_17_20_1 0
x_17_20_2 0
x_17_21_0 0
x_17_21_1 0
x_17_21_2 0
x_17_22_0 0
x_17_22_1 0
x_17_22_2 0
x_17_23_0 0
x_17_23_1 0
x_17_23_2 0
x_17_24_0 0
x_17_24_1 0
x_17_24_2 0
x_17_25_0 0
x_17_25_1 0
x_17_25_2 0
x_18_19_0 0
x_18_19_1 9.9999999999999978e-01
x_18_19_2 0
x_18_20_0 0
x_18_20_1 0
x_18_20_2 0
x_18_21_0 0
x_18_21_1 0
x_18_21_2 0
x_18_22_0 0
x_18_22_1 0
x_18_22_2 0
x_18_23_0 0
x_18_23_1 0
x_18_23_2 0
x_18_24_0 0
x_18_24_1 0
x_18_24_2 0
x_18_25_0 0
x_18_25_1 0
x_18_25_2 0
x_19_20_0 0
x_19_20_1 0
x_19_20_2 0
x_19_21_0 0
x_19_21_1 0
x_19_21_2 0
x_19_22_0 0
x_19_22_1 0
x_19_22_2 0
x_19_23_0 0
x_19_23_1 0
x_19_23_2 0
x_19_24_0 0
x_19_24_1 0
x_19_24_2 0
x_19_25_0 0
x_19_25_1 1.0000000000000002e+00
x_19_25_2 0
x_20_21_0 0
x_20_21_1 9.9999999999999978e-01
x_20_21_2 0
x_20_22_0 0
x_20_22_1 0
x_20_22_2 0
x_20_23_0 0
x_20_23_1 0
x_20_23_2 0
x_20_24_0 0
x_20_24_1 0
x_20_24_2 0
x_20_25_0 0
x_20_25_1 9.9999999999999978e-01
x_20_25_2 0
x_21_22_0 0
x_21_22_1 1.0000000000000004e+00
x_21_22_2 0
x_21_23_0 0
x_21_23_1 0
x_21_23_2 0
x_21_24_0 0
x_21_24_1 0
x_21_24_2 0
x_21_25_0 0
x_21_25_1 0
x_21_25_2 0
x_22_23_0 0
x_22_23_1 1
x_22_23_2 0
x_22_24_0 0
x_22_24_1 0
x_22_24_2 0
x_22_25_0 2.2204460492503131e-16
x_22_25_1 0
x_22_25_2 0
x_23_24_0 0
x_23_24_1 1
x_23_24_2 0
x_23_25_0 0
x_23_25_1 0
x_23_25_2 0
x_24_25_0 0
x_24_25_1 0
x_24_25_2 0
